decision_x1=[0,4];
decision_x2=[0,4];
decision_x3=[0,4];
decision_x4=[0,4];
decision_x5=[0,4];
decision_x6=[0,4];
decision_x7=[0,4];
decision_x8=[0,4];
decision_x9=[0,4];
decision_x10=[0,4];
random_y1=[0,4];
random_y2=[0,4];
constraint_x2_x1=[
0,1,0.36|
0,2,9.1|
0,3,2.5|
0,4,3|
1,0,4.2|
1,2,8.4|
1,3,3.9|
1,4,9.1|
2,0,6.4|
2,1,5.9|
2,3,5.4|
2,4,6.8|
3,0,0.36|
3,1,0.93|
3,2,5.2|
3,4,2.3|
4,0,7.6|
4,1,4.5|
4,2,5.9|
4,3,0.7|
];
constraint_x4_x2=[
0,1,2.9|
0,2,6.5|
0,3,7.5|
0,4,4.7|
1,0,4.8|
1,2,8.2|
1,3,3.7|
1,4,4.4|
2,0,6.4|
2,1,4.7|
2,3,2.8|
2,4,6.8|
3,0,1.5|
3,1,6.2|
3,2,5.3|
3,4,5.4|
4,0,4.9|
4,1,5.6|
4,2,2.1|
4,3,8.1|
];
constraint_x5_x1=[
0,1,8.2|
0,2,8|
0,3,3|
0,4,5|
1,0,4.2|
1,2,2|
1,3,2.7|
1,4,8.4|
2,0,4.6|
2,1,5.4|
2,3,9.8|
2,4,9.5|
3,0,5.5|
3,1,9.3|
3,2,0.44|
3,4,9.4|
4,0,5.1|
4,1,6.7|
4,2,0.5|
4,3,8.5|
];
constraint_x5_x3=[
0,1,0.76|
0,2,0.31|
0,3,2.7|
0,4,6|
1,0,7.5|
1,2,1|
1,3,6.3|
1,4,4.7|
2,0,4.8|
2,1,4.5|
2,3,5.6|
2,4,9.6|
3,0,6.5|
3,1,5.9|
3,2,3.2|
3,4,7.3|
4,0,7.4|
4,1,5.7|
4,2,3.9|
4,3,4.7|
];
constraint_x5_x4=[
0,1,1.6|
0,2,4.3|
0,3,5.1|
0,4,7.2|
1,0,2.6|
1,2,2.5|
1,3,0.58|
1,4,1.4|
2,0,4.1|
2,1,6.5|
2,3,4.1|
2,4,1.8|
3,0,2.5|
3,1,0.7|
3,2,5|
3,4,4.1|
4,0,7.3|
4,1,0.076|
4,2,1.6|
4,3,6.4|
];
constraint_x6_x2=[
0,1,3.3|
0,2,3.1|
0,3,1.8|
0,4,8.7|
1,0,2.7|
1,2,4.8|
1,3,2.5|
1,4,7.5|
2,0,6.5|
2,1,3.7|
2,3,9.5|
2,4,9.5|
3,0,8.8|
3,1,2.4|
3,2,3.7|
3,4,7.8|
4,0,5.5|
4,1,2.1|
4,2,5.5|
4,3,3.6|
];
constraint_x6_x3=[
0,1,8.5|
0,2,8.3|
0,3,6.7|
0,4,4.5|
1,0,6.5|
1,2,5.9|
1,3,9.9|
1,4,5.4|
2,0,3.1|
2,1,3.9|
2,3,7.4|
2,4,3.8|
3,0,1.9|
3,1,5.2|
3,2,1.5|
3,4,7.3|
4,0,9.9|
4,1,2.1|
4,2,2.8|
4,3,7.3|
];
constraint_x6_x4=[
0,1,6.4|
0,2,9.8|
0,3,7.3|
0,4,4.5|
1,0,1.4|
1,2,2.8|
1,3,0.95|
1,4,7.6|
2,0,4.5|
2,1,0.21|
2,3,1.3|
2,4,6.4|
3,0,5.6|
3,1,3.1|
3,2,1.9|
3,4,4.2|
4,0,1.3|
4,1,0.28|
4,2,8.9|
4,3,0.33|
];
constraint_x6_x5=[
0,1,8.6|
0,2,9.8|
0,3,2.8|
0,4,2.8|
1,0,8.4|
1,2,7.6|
1,3,9.5|
1,4,6.3|
2,0,3.5|
2,1,4.7|
2,3,2.9|
2,4,2.3|
3,0,1.2|
3,1,7.3|
3,2,2|
3,4,1.2|
4,0,4.3|
4,1,4.1|
4,2,1.8|
4,3,0.13|
];
constraint_x7_x1=[
0,1,5.2|
0,2,3.2|
0,3,9.6|
0,4,8|
1,0,2.8|
1,2,2.3|
1,3,0.72|
1,4,0.17|
2,0,0.67|
2,1,1.7|
2,3,7.2|
2,4,1.1|
3,0,4.3|
3,1,5.7|
3,2,4.1|
3,4,2.5|
4,0,8|
4,1,0.62|
4,2,3.5|
4,3,9|
];
constraint_x7_x3=[
0,1,4.8|
0,2,5.4|
0,3,2.7|
0,4,9.7|
1,0,4|
1,2,9.9|
1,3,5|
1,4,0.11|
2,0,6|
2,1,5.9|
2,3,2.5|
2,4,9.9|
3,0,0.94|
3,1,9.3|
3,2,5.3|
3,4,2.8|
4,0,0.49|
4,1,0.18|
4,2,5.7|
4,3,4.4|
];
constraint_x7_x6=[
0,1,5.4|
0,2,7.3|
0,3,5.9|
0,4,0.64|
1,0,6.4|
1,2,4.9|
1,3,3.1|
1,4,2.4|
2,0,0.42|
2,1,0.29|
2,3,3.1|
2,4,7.5|
3,0,3|
3,1,6.4|
3,2,2.5|
3,4,7.5|
4,0,8.3|
4,1,1.1|
4,2,3.8|
4,3,3|
];
constraint_x8_x2=[
0,1,4.6|
0,2,3.6|
0,3,0.35|
0,4,7|
1,0,5.4|
1,2,2.6|
1,3,0.66|
1,4,3.3|
2,0,9.2|
2,1,6.9|
2,3,5.4|
2,4,2.4|
3,0,8.9|
3,1,5.8|
3,2,9.4|
3,4,7.1|
4,0,7.9|
4,1,2.1|
4,2,2.7|
4,3,3.3|
];
constraint_x8_x3=[
0,1,0.68|
0,2,2|
0,3,3.7|
0,4,1.7|
1,0,7.6|
1,2,3.5|
1,3,6.2|
1,4,6.2|
2,0,3.6|
2,1,6.4|
2,3,7.1|
2,4,4.3|
3,0,8.7|
3,1,8.3|
3,2,7|
3,4,5.8|
4,0,8.7|
4,1,7.7|
4,2,3.3|
4,3,3.6|
];
constraint_x8_x4=[
0,1,7.6|
0,2,7.6|
0,3,2.6|
0,4,0.93|
1,0,1|
1,2,6.7|
1,3,9.7|
1,4,7.2|
2,0,7.9|
2,1,2.7|
2,3,0.6|
2,4,1.6|
3,0,0.17|
3,1,4|
3,2,5.2|
3,4,8.6|
4,0,5|
4,1,5.7|
4,2,3.7|
4,3,6.2|
];
constraint_x8_x7=[
0,1,4.4|
0,2,2.4|
0,3,3.1|
0,4,6.4|
1,0,1.7|
1,2,6.2|
1,3,9.6|
1,4,3.5|
2,0,2.9|
2,1,1.3|
2,3,9.3|
2,4,2.4|
3,0,0.81|
3,1,4.7|
3,2,8.7|
3,4,7.1|
4,0,6.6|
4,1,3.1|
4,2,1.9|
4,3,2|
];
constraint_x9_x1=[
0,1,2.5|
0,2,7.4|
0,3,4.8|
0,4,9.5|
1,0,2|
1,2,3.4|
1,3,7.3|
1,4,5.6|
2,0,1.8|
2,1,4.5|
2,3,7|
2,4,2.1|
3,0,5.5|
3,1,4.2|
3,2,1.8|
3,4,4.1|
4,0,3.9|
4,1,5.1|
4,2,3.7|
4,3,9.8|
];
constraint_x9_x6=[
0,1,6.8|
0,2,4.8|
0,3,7.6|
0,4,7.4|
1,0,0.92|
1,2,0.49|
1,3,0.32|
1,4,5.8|
2,0,6.3|
2,1,7.8|
2,3,3.8|
2,4,3.4|
3,0,3.4|
3,1,1.9|
3,2,5.2|
3,4,5.3|
4,0,4.6|
4,1,3.6|
4,2,3.3|
4,3,8.1|
];
constraint_x9_x8=[
0,1,9.8|
0,2,7.7|
0,3,6.3|
0,4,5.6|
1,0,6.5|
1,2,8.8|
1,3,9.4|
1,4,6.8|
2,0,9.5|
2,1,3|
2,3,5.5|
2,4,5.2|
3,0,1.6|
3,1,8.3|
3,2,7|
3,4,4.4|
4,0,7.9|
4,1,0.22|
4,2,2.7|
4,3,2.9|
];
constraint_x10_x1=[
0,1,6.6|
0,2,0.34|
0,3,7|
0,4,8.3|
1,0,2.7|
1,2,3|
1,3,6.5|
1,4,6.4|
2,0,4.4|
2,1,6.2|
2,3,1.2|
2,4,0.24|
3,0,5.1|
3,1,7.5|
3,2,7.9|
3,4,2.7|
4,0,6.5|
4,1,5.9|
4,2,9.2|
4,3,0.65|
];
constraint_x10_x2=[
0,1,6.5|
0,2,7.9|
0,3,0.87|
0,4,2.5|
1,0,9.7|
1,2,0.13|
1,3,8.7|
1,4,6.5|
2,0,1.6|
2,1,5.9|
2,3,5.9|
2,4,2.3|
3,0,2.1|
3,1,8.3|
3,2,0.74|
3,4,4.7|
4,0,2.7|
4,1,9.9|
4,2,2.4|
4,3,6|
];
constraint_x10_x5=[
0,1,0.5|
0,2,3.2|
0,3,9.6|
0,4,3.2|
1,0,3.6|
1,2,0.89|
1,3,0.56|
1,4,8.4|
2,0,1.4|
2,1,5.4|
2,3,3.8|
2,4,2.6|
3,0,9.8|
3,1,0.38|
3,2,5.4|
3,4,6.6|
4,0,6.7|
4,1,5.5|
4,2,1.4|
4,3,2.6|
];
constraint_x10_x9=[
0,1,6.6|
0,2,9.8|
0,3,7.2|
0,4,5.2|
1,0,4.2|
1,2,9.4|
1,3,1.2|
1,4,4.8|
2,0,0.48|
2,1,0.71|
2,3,4.8|
2,4,6.6|
3,0,5.9|
3,1,3.5|
3,2,2.2|
3,4,6.4|
4,0,3.3|
4,1,7.4|
4,2,4.8|
4,3,3.3|
];
constraint_x1_y1=[
0,0,6.7|
0,1,4.4|
0,2,6|
0,3,7.6|
0,4,4.9|
1,0,4.1|
1,1,9.5|
1,2,6.9|
1,3,4.3|
1,4,3.1|
2,0,1.5|
2,1,0.73|
2,2,8.5|
2,3,9.5|
2,4,9.9|
3,0,6.9|
3,1,9|
3,2,8.6|
3,3,6|
3,4,4.4|
4,0,4.1|
4,1,0.72|
4,2,6.3|
4,3,2.3|
4,4,1.7|
];
constraint_x2_y2=[
0,0,0.72|
0,1,2.5|
0,2,5.5|
0,3,2.9|
0,4,1.4|
1,0,1.6|
1,1,9.3|
1,2,2.8|
1,3,3|
1,4,4.1|
2,0,10|
2,1,5.8|
2,2,5.4|
2,3,0.16|
2,4,3.1|
3,0,5.4|
3,1,3.7|
3,2,8.8|
3,3,2.3|
3,4,3.5|
4,0,7.3|
4,1,2.6|
4,2,1.2|
4,3,0.15|
4,4,2.3|
];
initial_distribution_y1=[0.22,0.17,0.16,0.25,0.2];
initial_distribution_y2=[0.036,0.32,0.1,0.49,0.056];
transition_y1=[
0.27,0.25,0.13,0.29,0.068|
0.31,0.13,0.13,0.16,0.28|
0.2,0.19,0.19,0.31,0.11|
0.23,0.25,0.15,0.11,0.25|
0.13,0.3,0.2,0.21,0.16|
];
transition_y2=[
0.3,0.16,0.11,0.25,0.17|
0.091,0.35,0.14,0.029,0.39|
0.21,0.04,0.42,0.05,0.27|
0.024,0.4,0.02,0.26,0.29|
0.078,0.29,0.1,0.29,0.24|
];
